1 3 4 124 122 123 121 95 96 92 93 94 68 67 66 65 64 63 70 69 89 90 91 97 98 88 99 100 86 87 84 85 101 102 83 82 81 80 79 78 71 72 73 74 75 76 77 113 112 111 110 109 108 114 115 116 107 106 105 104 103 117 118 119 120 5 21 19 20 22 29 28 23 24 25 26 27 42 43 44 45 46 47 48 49 50 51 52 41 40 39 53 54 55 56 57 58 59 60 61 62 38 37 36 35 34 33 32 31 30 18 17 16 15 14 13 12 11 10 9 8 7 6 2
